c "421909.clq"
p edge 120 464
e 1 5
e 1 6
e 1 7
e 1 9
e 1 11
e 1 13
e 1 14
e 1 18
e 1 24
e 1 25
e 1 36
e 1 39
e 1 61
e 1 76
e 2 5
e 2 6
e 2 7
e 2 9
e 2 11
e 2 15
e 2 17
e 2 30
e 2 38
e 2 40
e 2 44
e 2 57
e 2 62
e 2 72
e 2 86
e 2 118
e 3 5
e 3 6
e 3 8
e 3 12
e 3 16
e 3 17
e 3 28
e 3 39
e 3 41
e 3 46
e 3 55
e 3 94
e 3 106
e 3 115
e 3 119
e 4 5
e 4 63
e 5 6
e 5 7
e 5 8
e 5 10
e 5 14
e 5 19
e 5 22
e 5 23
e 5 25
e 5 31
e 5 37
e 5 46
e 5 48
e 5 53
e 5 54
e 5 58
e 5 62
e 5 71
e 5 77
e 5 85
e 5 88
e 5 116
e 5 120
e 6 7
e 6 8
e 6 9
e 6 10
e 6 12
e 6 15
e 6 17
e 6 19
e 6 22
e 6 26
e 6 27
e 6 28
e 6 29
e 6 42
e 6 48
e 6 50
e 6 58
e 6 65
e 6 67
e 6 81
e 6 82
e 6 85
e 6 96
e 6 100
e 6 102
e 6 106
e 6 113
e 6 115
e 6 119
e 7 8
e 7 9
e 7 10
e 7 11
e 7 12
e 7 13
e 7 14
e 7 15
e 7 17
e 7 19
e 7 21
e 7 23
e 7 30
e 7 31
e 7 32
e 7 33
e 7 35
e 7 37
e 7 38
e 7 39
e 7 46
e 7 47
e 7 53
e 7 59
e 7 65
e 7 73
e 7 75
e 7 83
e 7 87
e 7 96
e 7 99
e 7 103
e 7 104
e 7 109
e 7 111
e 8 10
e 8 13
e 8 20
e 8 21
e 8 22
e 8 27
e 8 28
e 8 42
e 8 55
e 8 76
e 8 79
e 8 84
e 8 88
e 8 89
e 8 91
e 8 110
e 8 115
e 8 117
e 9 11
e 9 20
e 9 38
e 9 39
e 9 41
e 9 61
e 9 63
e 9 69
e 9 70
e 9 73
e 9 80
e 9 92
e 9 95
e 9 101
e 9 114
e 10 12
e 10 13
e 10 16
e 10 44
e 10 50
e 10 53
e 10 65
e 10 71
e 10 100
e 11 18
e 11 21
e 11 74
e 11 79
e 11 95
e 11 103
e 12 14
e 12 16
e 12 20
e 12 21
e 12 23
e 12 24
e 12 32
e 12 33
e 12 57
e 12 58
e 12 66
e 12 82
e 12 109
e 12 110
e 12 119
e 13 47
e 13 49
e 14 15
e 14 16
e 14 30
e 14 35
e 14 69
e 14 76
e 14 78
e 14 81
e 14 84
e 14 95
e 14 97
e 14 117
e 14 120
e 15 18
e 15 23
e 15 33
e 15 34
e 15 42
e 15 43
e 15 86
e 15 109
e 16 18
e 16 22
e 16 24
e 16 25
e 16 42
e 16 48
e 16 52
e 16 57
e 16 58
e 16 60
e 16 81
e 16 82
e 16 88
e 16 90
e 16 93
e 16 98
e 16 112
e 16 120
e 17 19
e 17 26
e 17 35
e 17 41
e 17 43
e 17 45
e 17 52
e 17 70
e 17 83
e 17 88
e 17 89
e 17 101
e 17 107
e 18 20
e 18 31
e 18 41
e 18 46
e 18 78
e 18 105
e 19 24
e 19 29
e 19 33
e 20 25
e 20 26
e 20 27
e 20 34
e 20 36
e 20 40
e 20 61
e 20 67
e 20 74
e 20 78
e 20 79
e 20 83
e 20 89
e 20 99
e 20 107
e 21 28
e 21 49
e 21 60
e 21 104
e 21 107
e 22 26
e 22 37
e 22 52
e 22 64
e 22 78
e 22 92
e 22 93
e 22 97
e 22 99
e 23 34
e 23 43
e 23 53
e 23 65
e 23 104
e 24 27
e 24 29
e 24 30
e 24 31
e 24 32
e 24 40
e 24 43
e 24 47
e 24 51
e 24 55
e 24 97
e 24 119
e 25 32
e 25 48
e 25 49
e 25 50
e 25 69
e 25 93
e 25 105
e 25 108
e 26 29
e 27 38
e 27 51
e 27 54
e 27 60
e 27 84
e 27 101
e 28 44
e 28 99
e 28 100
e 28 112
e 29 35
e 29 45
e 29 91
e 30 62
e 30 73
e 30 85
e 30 114
e 31 66
e 31 81
e 32 36
e 32 47
e 32 51
e 32 68
e 33 34
e 33 36
e 33 50
e 33 68
e 33 75
e 33 76
e 33 102
e 34 37
e 34 44
e 34 52
e 34 63
e 34 98
e 34 107
e 35 60
e 35 87
e 35 91
e 36 103
e 37 40
e 37 67
e 37 75
e 37 92
e 37 95
e 37 106
e 37 108
e 38 55
e 38 71
e 38 98
e 39 54
e 39 113
e 40 66
e 40 89
e 40 118
e 41 57
e 41 64
e 41 68
e 41 70
e 41 72
e 41 102
e 41 113
e 42 45
e 42 54
e 43 56
e 43 68
e 43 72
e 43 80
e 44 45
e 44 49
e 44 56
e 44 70
e 44 72
e 44 77
e 45 56
e 45 103
e 45 115
e 46 51
e 46 59
e 46 64
e 46 66
e 46 77
e 46 86
e 46 87
e 46 90
e 46 109
e 47 56
e 47 59
e 47 73
e 47 79
e 47 84
e 47 94
e 47 111
e 49 59
e 49 63
e 49 67
e 50 116
e 52 118
e 53 69
e 53 96
e 53 108
e 53 117
e 54 80
e 54 111
e 55 74
e 55 91
e 55 97
e 55 105
e 56 64
e 57 62
e 57 77
e 58 71
e 60 61
e 60 75
e 61 87
e 62 80
e 63 86
e 64 82
e 64 106
e 65 74
e 67 83
e 67 102
e 67 110
e 68 116
e 70 85
e 71 120
e 73 94
e 74 90
e 75 113
e 77 112
e 77 114
e 82 90
e 82 94
e 82 104
e 82 105
e 83 98
e 83 100
e 85 114
e 86 92
e 86 93
e 88 111
e 89 108
e 90 96
e 93 110
e 95 101
e 96 118
e 102 116
e 105 112
e 107 117
